68
122
112
72
131
165
108
128
121
164
175
167
126
96
138
124
107
125
108
172
101
121
152
100
108
117
91
128
81
0
173
135
106
114
126
112
115
73
100
91
131
104
82
86
139
156
69
80
162
186
144
90
124
123
95
93
104
120
132
137
62
100
146
129
127
98
128
127
154
103
122
105
118
173
86
126
138
108
62
83
83
146
131
172
120
98
157
190
167
85
99
93
182
95
162
106
137
77
84
158
